Optimal - objective value 37.00000000
     12 x_1_16                  1                       0
     29 x_2_3                   1                       0
     78 x_3_32                  1                       0
     94 x_4_23                  1                       0
    125 x_5_27                  1                       0
    140 x_6_9                   1                       0
    156 x_7_0                   1                       0
    198 x_8_19                  1                       0
    213 x_9_5                   1                       0
    243 x_10_13                 1                       0
    284 x_11_37                 1                      37
